
Gurobi 9.5.2 (mac64[arm]) logging started Fri Apr 28 18:22:13 2023

Set parameter LogFile to value "Java/output/iterative_model_2_machine/scenario_seed_0_nJob_40_machineCount_2/mip_increment_2/log.txt"
Gurobi Optimizer version 9.5.2 build v9.5.2rc0 (mac64[arm])
Thread count: 8 physical cores, 8 logical processors, using up to 8 threads
Optimize a model with 1133 rows, 7920 columns and 64036 nonzeros
Model fingerprint: 0xddd0d3d9
Variable types: 0 continuous, 7920 integer (7920 binary)
Coefficient statistics:
  Matrix range     [1e+00, 2e+02]
  Objective range  [6e+01, 3e+06]
  Bounds range     [1e+00, 1e+00]
  RHS range        [1e+00, 1e+00]
Found heuristic solution: objective 1.941933e+07
Presolve removed 142 rows and 1468 columns
Presolve time: 0.07s
Presolved: 991 rows, 6452 columns, 52282 nonzeros
Variable types: 0 continuous, 6452 integer (6452 binary)

Root relaxation: objective 1.134187e+05, 1325 iterations, 0.04 seconds (0.09 work units)

    Nodes    |    Current Node    |     Objective Bounds      |     Work
 Expl Unexpl |  Obj  Depth IntInf | Incumbent    BestBd   Gap | It/Node Time

     0     0 113418.696    0  146 1.9419e+07 113418.696  99.4%     -    0s
H    0     0                    1.528696e+07 113418.696  99.3%     -    0s
H    0     0                    1.030224e+07 113418.696  98.9%     -    0s
H    0     0                    1.030221e+07 113418.696  98.9%     -    0s
H    0     0                    9071072.0000 113418.696  98.7%     -    0s
H    0     0                    8591888.0000 113418.696  98.7%     -    0s
H    0     0                    8567504.0000 113418.696  98.7%     -    0s
H    0     0                    4790944.0000 126997.977  97.3%     -    0s
     0     0 126997.977    0  209 4790944.00 126997.977  97.3%     -    0s
H    0     0                    4784384.0000 126997.977  97.3%     -    0s
H    0     0                    4779808.0000 126997.977  97.3%     -    0s
H    0     0                    4371152.0000 127269.561  97.1%     -    0s
     0     0 127269.561    0  198 4371152.00 127269.561  97.1%     -    0s
     0     0 127270.460    0  198 4371152.00 127270.460  97.1%     -    0s
H    0     0                    3321248.0000 157491.975  95.3%     -    0s
     0     0 157491.975    0  214 3321248.00 157491.975  95.3%     -    0s
     0     0 157654.244    0  212 3321248.00 157654.244  95.3%     -    0s
     0     0 189021.814    0  211 3321248.00 189021.814  94.3%     -    0s
H    0     0                    2018976.0000 189021.814  90.6%     -    0s
     0     0 192120.859    0  223 2018976.00 192120.859  90.5%     -    0s
     0     0 192424.521    0  222 2018976.00 192424.521  90.5%     -    0s
     0     0 192483.298    0  221 2018976.00 192483.298  90.5%     -    0s
     0     0 192483.298    0  221 2018976.00 192483.298  90.5%     -    0s
     0     0 207043.220    0  222 2018976.00 207043.220  89.7%     -    1s
H    0     0                    1986304.0000 207043.220  89.6%     -    1s
H    0     0                    1964096.0000 207043.220  89.5%     -    1s
H    0     0                    1963904.0000 207043.220  89.5%     -    1s
     0     0 208470.521    0  235 1963904.00 208470.521  89.4%     -    1s
H    0     0                    1665856.0000 208744.890  87.5%     -    1s
     0     0 208744.890    0  236 1665856.00 208744.890  87.5%     -    1s
     0     0 208789.906    0  242 1665856.00 208789.906  87.5%     -    1s
     0     0 208789.906    0  238 1665856.00 208789.906  87.5%     -    1s
H    0     0                    974176.00000 208789.906  78.6%     -    1s
H    0     0                    899232.00000 214027.061  76.2%     -    1s
H    0     0                    822992.00000 214027.061  74.0%     -    1s
H    0     0                    810336.00000 214027.061  73.6%     -    1s
     0     0 214027.061    0  257 810336.000 214027.061  73.6%     -    1s
H    0     0                    807104.00000 214027.061  73.5%     -    1s
H    0     0                    694160.00000 214027.061  69.2%     -    1s
     0     0 216278.461    0  272 694160.000 216278.461  68.8%     -    1s
     0     0 216879.710    0  278 694160.000 216879.710  68.8%     -    1s
     0     0 216880.675    0  283 694160.000 216880.675  68.8%     -    1s
     0     0 223257.666    0  277 694160.000 223257.666  67.8%     -    1s
H    0     0                    676848.00000 223257.666  67.0%     -    1s
     0     0 223934.195    0  276 676848.000 223934.195  66.9%     -    1s
     0     0 223941.136    0  282 676848.000 223941.136  66.9%     -    1s
     0     0 230247.100    0  283 676848.000 230247.100  66.0%     -    1s
H    0     0                    618928.00000 230247.100  62.8%     -    2s
     0     0 231061.332    0  285 618928.000 231061.332  62.7%     -    2s
     0     0 231117.825    0  285 618928.000 231117.825  62.7%     -    2s
     0     0 236306.104    0  304 618928.000 236306.104  61.8%     -    2s
     0     0 237558.549    0  302 618928.000 237558.549  61.6%     -    2s
     0     0 237690.681    0  302 618928.000 237690.681  61.6%     -    2s
     0     0 237718.875    0  301 618928.000 237718.875  61.6%     -    2s
H    0     0                    618672.00000 241229.401  61.0%     -    2s
     0     0 241229.401    0  288 618672.000 241229.401  61.0%     -    2s
H    0     0                    618032.00000 241667.280  60.9%     -    2s
     0     0 241667.280    0  298 618032.000 241667.280  60.9%     -    2s
     0     0 241779.030    0  298 618032.000 241779.030  60.9%     -    2s
     0     0 241872.602    0  306 618032.000 241872.602  60.9%     -    2s
     0     0 241884.242    0  301 618032.000 241884.242  60.9%     -    2s
     0     0 243303.053    0  301 618032.000 243303.053  60.6%     -    2s
H    0     0                    614352.00000 243303.053  60.4%     -    2s
     0     0 243744.400    0  293 614352.000 243744.400  60.3%     -    2s
     0     0 243779.459    0  289 614352.000 243779.459  60.3%     -    2s
     0     0 245245.674    0  298 614352.000 245245.674  60.1%     -    2s
H    0     0                    595872.00000 245245.674  58.8%     -    2s
     0     0 245678.256    0  307 595872.000 245678.256  58.8%     -    2s
     0     0 245935.157    0  322 595872.000 245935.157  58.7%     -    2s
     0     0 246030.753    0  323 595872.000 246030.753  58.7%     -    2s
     0     0 246101.205    0  329 595872.000 246101.205  58.7%     -    2s
     0     0 247865.347    0  323 595872.000 247865.347  58.4%     -    2s
H    0     0                    595376.00000 247865.347  58.4%     -    2s
     0     0 248151.842    0  331 595376.000 248151.842  58.3%     -    2s
     0     0 248319.561    0  322 595376.000 248319.561  58.3%     -    2s
     0     0 248425.587    0  322 595376.000 248425.587  58.3%     -    2s
     0     0 248448.887    0  328 595376.000 248448.887  58.3%     -    2s
     0     0 249256.691    0  338 595376.000 249256.691  58.1%     -    2s
     0     0 249587.772    0  345 595376.000 249587.772  58.1%     -    2s
     0     0 249726.638    0  330 595376.000 249726.638  58.1%     -    2s
     0     0 249726.638    0  331 595376.000 249726.638  58.1%     -    2s
     0     0 251340.443    0  316 595376.000 251340.443  57.8%     -    3s
     0     0 251483.405    0  316 595376.000 251483.405  57.8%     -    3s
     0     0 251498.069    0  326 595376.000 251498.069  57.8%     -    3s
     0     0 251940.964    0  335 595376.000 251940.964  57.7%     -    3s
     0     0 251940.964    0  334 595376.000 251940.964  57.7%     -    3s
     0     0 251975.995    0  149 595376.000 251975.995  57.7%     -    3s
H    0     0                    591472.00000 251975.995  57.4%     -    3s
H    0     0                    397248.00000 251975.995  36.6%     -    3s
     0     0 251975.995    0  219 397248.000 251975.995  36.6%     -    3s
     0     0 251975.995    0  277 397248.000 251975.995  36.6%     -    3s
     0     0 251975.995    0  303 397248.000 251975.995  36.6%     -    3s
     0     0 251975.995    0  306 397248.000 251975.995  36.6%     -    3s
     0     0 251975.995    0  307 397248.000 251975.995  36.6%     -    3s
     0     0 251975.995    0  318 397248.000 251975.995  36.6%     -    3s
     0     0 251975.995    0  319 397248.000 251975.995  36.6%     -    3s
     0     0 254511.856    0  320 397248.000 254511.856  35.9%     -    4s
     0     0 254592.284    0  316 397248.000 254592.284  35.9%     -    4s
     0     0 255396.651    0  337 397248.000 255396.651  35.7%     -    4s
     0     0 255396.651    0  326 397248.000 255396.651  35.7%     -    4s
     0     2 255432.102    0  324 397248.000 255432.102  35.7%     -    4s
H   33    40                    392544.00000 260020.156  33.8%   536    4s
    67    76 275464.761    7  290 392544.000 264006.894  32.7%   524    5s
H   74    76                    392352.00000 264006.894  32.7%   507    5s
H  130   137                    333184.00000 265435.280  20.3%   504    5s
H  168   167                    332976.00000 265435.280  20.3%   487    5s
H 1200   683                    323408.00000 269771.138  16.6%   325    9s
H 1257   626                    317792.00000 269771.138  15.1%   319    9s
  1453   676 277698.463   10  146 317792.000 271962.732  14.4%   305   10s
H 1474   655                    317040.00000 271962.732  14.2%   301   10s
  1646   765 286603.118   25  229 317040.000 271962.732  14.2%   326   15s
* 1821   756              38    311200.00000 271962.732  12.6%   318   15s
H 1916   700                    308000.00000 272599.781  11.5%   312   15s
* 2254   633              30    306096.00000 275276.693  10.1%   307   17s
H 2288   594                    305776.00000 275727.074  9.83%   306   17s
* 2517   516              29    295872.00000 280894.043  5.06%   305   18s

Cutting planes:
  Gomory: 1
  Cover: 6
  Clique: 61
  MIR: 199
  StrongCG: 58
  Flow cover: 80
  GUB cover: 89
  Zero half: 10
  Mod-K: 1
  RLT: 5

Explored 3165 nodes (921096 simplex iterations) in 19.39 seconds (46.74 work units)
Thread count was 8 (of 8 available processors)

Solution count 10: 295872 305776 306096 ... 333184

Optimal solution found (tolerance 1.00e-04)
Best objective 2.958720000000e+05, best bound 2.958720000000e+05, gap 0.0000%

Gurobi 9.5.2 (mac64[arm]) logging started Fri Apr 28 18:22:32 2023

Set parameter LogFile to value "Java/output/iterative_model_2_machine/scenario_seed_0_nJob_40_machineCount_2/mip_increment_2/log.txt"
Gurobi Optimizer version 9.5.2 build v9.5.2rc0 (mac64[arm])
Thread count: 8 physical cores, 8 logical processors, using up to 8 threads
Optimize a model with 1115 rows, 4254 columns and 31977 nonzeros
Model fingerprint: 0x38597e8c
Variable types: 0 continuous, 4254 integer (4254 binary)
Coefficient statistics:
  Matrix range     [1e+00, 2e+02]
  Objective range  [3e+02, 5e+05]
  Bounds range     [1e+00, 1e+00]
  RHS range        [1e+00, 1e+00]
Found heuristic solution: objective 2149488.0000
Presolve removed 408 rows and 497 columns
Presolve time: 0.03s
Presolved: 707 rows, 3757 columns, 28156 nonzeros
Variable types: 0 continuous, 3757 integer (3757 binary)
Found heuristic solution: objective 1480484.0000

Root relaxation: objective 2.399404e+04, 855 iterations, 0.02 seconds (0.03 work units)

    Nodes    |    Current Node    |     Objective Bounds      |     Work
 Expl Unexpl |  Obj  Depth IntInf | Incumbent    BestBd   Gap | It/Node Time

     0     0 23994.0380    0   75 1480484.00 23994.0380  98.4%     -    0s
H    0     0                    661752.00000 23994.0380  96.4%     -    0s
H    0     0                    34768.000000 23994.0380  31.0%     -    0s
H    0     0                    34120.000000 23994.0380  29.7%     -    0s
     0     0 27305.4185    0   93 34120.0000 27305.4185  20.0%     -    0s
     0     0 27305.4185    0   82 34120.0000 27305.4185  20.0%     -    0s
H    0     0                    32272.000000 27305.4185  15.4%     -    0s
     0     0 27455.1255    0  104 32272.0000 27455.1255  14.9%     -    0s
     0     0 28403.3463    0  106 32272.0000 28403.3463  12.0%     -    0s
     0     0 28672.8889    0  103 32272.0000 28672.8889  11.2%     -    0s
     0     0 28714.4791    0  104 32272.0000 28714.4791  11.0%     -    0s
H    0     0                    30888.000000 28714.4791  7.04%     -    0s
H    0     0                    30428.000000 28714.4791  5.63%     -    0s
H    0     0                    30220.000000 28714.4791  4.98%     -    0s
     0     0 30093.2000    0   58 30220.0000 30093.2000  0.42%     -    0s
     0     0     cutoff    0      30220.0000 30220.0000  0.00%     -    0s

Cutting planes:
  Cover: 2
  Clique: 14
  MIR: 13
  StrongCG: 5
  GUB cover: 26
  Zero half: 16
  Mod-K: 1
  RLT: 7

Explored 1 nodes (3756 simplex iterations) in 0.27 seconds (0.35 work units)
Thread count was 8 (of 8 available processors)

Solution count 10: 30220 30428 30888 ... 2.14949e+06

Optimal solution found (tolerance 1.00e-04)
Best objective 3.022000000000e+04, best bound 3.022000000000e+04, gap 0.0000%

Gurobi 9.5.2 (mac64[arm]) logging started Fri Apr 28 18:22:33 2023

Set parameter LogFile to value "Java/output/iterative_model_2_machine/scenario_seed_0_nJob_40_machineCount_2/mip_increment_2/log.txt"
Gurobi Optimizer version 9.5.2 build v9.5.2rc0 (mac64[arm])
Thread count: 8 physical cores, 8 logical processors, using up to 8 threads
Optimize a model with 1122 rows, 3282 columns and 23248 nonzeros
Model fingerprint: 0xa0315d5d
Variable types: 0 continuous, 3282 integer (3282 binary)
Coefficient statistics:
  Matrix range     [1e+00, 2e+02]
  Objective range  [9e+01, 5e+04]
  Bounds range     [1e+00, 1e+00]
  RHS range        [1e+00, 1e+00]
Presolve removed 623 rows and 643 columns
Presolve time: 0.02s
Presolved: 499 rows, 2639 columns, 18398 nonzeros
Variable types: 0 continuous, 2639 integer (2639 binary)

Root relaxation: objective 5.926846e+03, 1146 iterations, 0.02 seconds (0.03 work units)

    Nodes    |    Current Node    |     Objective Bounds      |     Work
 Expl Unexpl |  Obj  Depth IntInf | Incumbent    BestBd   Gap | It/Node Time

     0     0 5926.84622    0   73          - 5926.84622      -     -    0s
H    0     0                    73882.000000 5926.84622  92.0%     -    0s
H    0     0                    63461.000000 5926.84622  90.7%     -    0s
H    0     0                    59679.000000 5926.84622  90.1%     -    0s
H    0     0                    51998.000000 5926.84622  88.6%     -    0s
     0     0 6342.86561    0  113 51998.0000 6342.86561  87.8%     -    0s
H    0     0                    24153.000000 6342.86561  73.7%     -    0s
H    0     0                    15752.000000 6342.86561  59.7%     -    0s
H    0     0                    15280.000000 6342.86561  58.5%     -    0s
H    0     0                    13309.000000 6342.86561  52.3%     -    0s
     0     0 6595.82511    0  119 13309.0000 6595.82511  50.4%     -    0s
H    0     0                    13308.000000 6595.82511  50.4%     -    0s
     0     0 6597.05882    0  115 13308.0000 6597.05882  50.4%     -    0s
     0     0 6850.94593    0  148 13308.0000 6850.94593  48.5%     -    0s
H    0     0                    10633.000000 6885.81957  35.2%     -    0s
     0     0 6885.81957    0  143 10633.0000 6885.81957  35.2%     -    0s
     0     0 6889.92335    0  151 10633.0000 6889.92335  35.2%     -    0s
     0     0 6890.14766    0  152 10633.0000 6890.14766  35.2%     -    0s
     0     0 7117.27882    0  143 10633.0000 7117.27882  33.1%     -    0s
H    0     0                    10542.000000 7117.27882  32.5%     -    0s
     0     0 7117.27882    0   74 10542.0000 7117.27882  32.5%     -    0s
     0     0 7117.27882    0  121 10542.0000 7117.27882  32.5%     -    0s
     0     0 7117.27882    0  124 10542.0000 7117.27882  32.5%     -    0s
     0     0 7117.27882    0  128 10542.0000 7117.27882  32.5%     -    0s
     0     0 7131.64279    0  136 10542.0000 7131.64279  32.4%     -    0s
     0     0 7166.90593    0  144 10542.0000 7166.90593  32.0%     -    0s
     0     0 7177.88591    0  137 10542.0000 7177.88591  31.9%     -    0s
     0     0 7177.88591    0  137 10542.0000 7177.88591  31.9%     -    0s
H    0     0                    8223.0000000 7177.88591  12.7%     -    0s
     0     0 7207.13157    0  127 8223.00000 7207.13157  12.4%     -    0s
H    0     0                    7901.0000000 7207.13157  8.78%     -    0s
     0     0 7246.45483    0  120 7901.00000 7246.45483  8.28%     -    0s
     0     0 7247.42821    0  120 7901.00000 7247.42821  8.27%     -    0s
     0     0 7247.86470    0  120 7901.00000 7247.86470  8.27%     -    0s
     0     0 7292.91814    0  155 7901.00000 7292.91814  7.70%     -    0s
     0     0 7292.91814    0   76 7901.00000 7292.91814  7.70%     -    0s
     0     0 7292.91814    0  102 7901.00000 7292.91814  7.70%     -    0s
     0     0 7292.91814    0   76 7901.00000 7292.91814  7.70%     -    0s
     0     0 7292.91814    0  123 7901.00000 7292.91814  7.70%     -    0s
     0     0 7307.35422    0  126 7901.00000 7307.35422  7.51%     -    0s
     0     0 7321.64253    0  143 7901.00000 7321.64253  7.33%     -    0s
     0     0 7323.04641    0  136 7901.00000 7323.04641  7.31%     -    0s
     0     0 7338.13502    0  159 7901.00000 7338.13502  7.12%     -    0s
     0     0 7352.22807    0  128 7901.00000 7352.22807  6.95%     -    0s
     0     0 7354.66667    0   46 7901.00000 7354.66667  6.91%     -    0s
     0     0 7356.60470    0  127 7901.00000 7356.60470  6.89%     -    0s
     0     0 7357.62109    0  131 7901.00000 7357.62109  6.88%     -    0s
     0     0 7357.62109    0  132 7901.00000 7357.62109  6.88%     -    0s
     0     0 7360.93712    0  140 7901.00000 7360.93712  6.84%     -    0s
     0     0 7361.09747    0  143 7901.00000 7361.09747  6.83%     -    0s
     0     0 7361.09747    0  143 7901.00000 7361.09747  6.83%     -    0s
     0     0 7361.09747    0  141 7901.00000 7361.09747  6.83%     -    0s
     0     2 7362.07323    0  135 7901.00000 7362.07323  6.82%     -    0s
*   65     5              12    7771.0000000 7698.89158  0.93%  44.3    0s

Cutting planes:
  Cover: 3
  Clique: 26
  MIR: 25
  StrongCG: 10
  GUB cover: 27
  Inf proof: 1
  Zero half: 12
  Mod-K: 1
  RLT: 7

Explored 79 nodes (10130 simplex iterations) in 0.86 seconds (1.11 work units)
Thread count was 8 (of 8 available processors)

Solution count 10: 7771 7901 8223 ... 15752

Optimal solution found (tolerance 1.00e-04)
Best objective 7.771000000000e+03, best bound 7.771000000000e+03, gap 0.0000%

Gurobi 9.5.2 (mac64[arm]) logging started Fri Apr 28 18:22:34 2023

Set parameter LogFile to value "Java/output/iterative_model_2_machine/scenario_seed_0_nJob_40_machineCount_2/mip_increment_2/log.txt"
Gurobi Optimizer version 9.5.2 build v9.5.2rc0 (mac64[arm])
Thread count: 8 physical cores, 8 logical processors, using up to 8 threads
Optimize a model with 2314 rows, 42592 columns and 531384 nonzeros
Model fingerprint: 0xdfabe9b7
Variable types: 0 continuous, 42592 integer (42592 binary)
Coefficient statistics:
  Matrix range     [1e+00, 2e+02]
  Objective range  [1e+00, 3e+06]
  Bounds range     [1e+00, 1e+00]
  RHS range        [1e+00, 1e+00]

Warning: Completing partial solution with 42471 unfixed non-continuous variables out of 42592
User MIP start produced solution with objective 273132 (0.03s)
Loaded user MIP start with objective 273132

Presolve removed 144 rows and 6272 columns
Presolve time: 0.51s
Presolved: 2170 rows, 36320 columns, 455704 nonzeros
Variable types: 0 continuous, 36320 integer (36320 binary)
Found heuristic solution: objective 273124.00000

Root simplex log...

Iteration    Objective       Primal Inf.    Dual Inf.      Time
   30495    9.6492942e+04   5.326623e+04   0.000000e+00      5s
   35815    9.7531969e+04   0.000000e+00   0.000000e+00      6s

Root relaxation: objective 9.753197e+04, 35815 iterations, 5.75 seconds (15.30 work units)

    Nodes    |    Current Node    |     Objective Bounds      |     Work
 Expl Unexpl |  Obj  Depth IntInf | Incumbent    BestBd   Gap | It/Node Time

     0     0 97531.9687    0  527 273124.000 97531.9687  64.3%     -    6s
     0     0 103774.215    0  668 273124.000 103774.215  62.0%     -   11s
     0     0 105462.763    0  724 273124.000 105462.763  61.4%     -   18s
     0     0 105488.647    0  699 273124.000 105488.647  61.4%     -   19s
     0     0 105488.661    0  715 273124.000 105488.661  61.4%     -   19s
     0     0 126208.577    0  791 273124.000 126208.577  53.8%     -   31s
     0     0 134512.149    0  789 273124.000 134512.149  50.8%     -   46s
     0     0 135533.778    0  778 273124.000 135533.778  50.4%     -   52s
     0     0 135586.527    0  781 273124.000 135586.527  50.4%     -   55s
     0     0 135586.570    0  780 273124.000 135586.570  50.4%     -   55s
     0     0 139470.885    0  817 273124.000 139470.885  48.9%     -   61s
     0     0 140103.802    0  836 273124.000 140103.802  48.7%     -   65s
     0     0 140140.575    0  837 273124.000 140140.575  48.7%     -   68s
     0     0 140244.186    0  850 273124.000 140244.186  48.7%     -   74s
     0     0 140244.240    0  849 273124.000 140244.240  48.7%     -   74s
     0     0 156153.642    0  859 273124.000 156153.642  42.8%     -   84s
     0     0 162041.618    0  858 273124.000 162041.618  40.7%     -   99s
H    0     0                    273108.00000 162407.941  40.5%     -  106s
     0     0 162407.941    0  893 273108.000 162407.941  40.5%     -  106s
     0     0 162430.985    0  908 273108.000 162430.985  40.5%     -  108s
     0     0 162431.057    0  889 273108.000 162431.057  40.5%     -  108s
     0     0 173704.823    0  907 273108.000 173704.823  36.4%     -  120s
H    0     0                    273020.00000 173704.823  36.4%     -  120s
H    0     0                    271544.00000 175989.005  35.2%     -  134s
     0     0 175989.005    0  948 271544.000 175989.005  35.2%     -  134s
H    0     0                    270939.00000 177114.372  34.6%     -  152s
H    0     0                    270112.00000 177114.372  34.4%     -  152s
     0     0 177114.372    0  935 270112.000 177114.372  34.4%     -  152s
H    0     0                    270050.00000 177439.945  34.3%     -  168s
H    0     0                    270049.00000 177439.945  34.3%     -  168s
     0     0 177439.945    0  970 270049.000 177439.945  34.3%     -  168s
     0     0 177455.132    0  972 270049.000 177455.132  34.3%     -  172s
H    0     0                    270023.00000 184851.038  31.5%     -  196s
     0     0 184851.038    0  948 270023.000 184851.038  31.5%     -  196s
H    0     0                    270019.00000 184851.038  31.5%     -  196s
     0     0 187609.307    0  935 270019.000 187609.307  30.5%     -  217s
     0     0 188449.859    0  956 270019.000 188449.859  30.2%     -  225s
     0     0 188789.444    0  925 270019.000 188789.444  30.1%     -  233s
     0     0 188875.267    0  946 270019.000 188875.267  30.1%     -  236s
     0     0 188881.603    0  940 270019.000 188881.603  30.0%     -  237s
     0     0 195812.283    0  966 270019.000 195812.283  27.5%     -  255s
     0     0 196524.277    0  995 270019.000 196524.277  27.2%     -  266s
     0     0 196764.827    0 1006 270019.000 196764.827  27.1%     -  281s
     0     0 196810.391    0 1025 270019.000 196810.391  27.1%     -  286s
     0     0 196811.287    0 1009 270019.000 196811.287  27.1%     -  287s
     0     0 201959.244    0 1004 270019.000 201959.244  25.2%     -  303s
     0     0 203859.416    0 1037 270019.000 203859.416  24.5%     -  327s
     0     0 204079.271    0 1025 270019.000 204079.271  24.4%     -  335s
     0     0 204123.700    0 1012 270019.000 204123.700  24.4%     -  339s
     0     0 206846.841    0 1042 270019.000 206846.841  23.4%     -  355s
     0     0 207487.996    0 1023 270019.000 207487.996  23.2%     -  368s
     0     0 207799.203    0 1061 270019.000 207799.203  23.0%     -  380s
     0     0 207890.865    0 1102 270019.000 207890.865  23.0%     -  387s
     0     0 207957.872    0 1120 270019.000 207957.872  23.0%     -  395s
     0     0 207962.691    0 1142 270019.000 207962.691  23.0%     -  397s
     0     0 209703.455    0 1071 270019.000 209703.455  22.3%     -  414s
     0     0 210457.620    0 1085 270019.000 210457.620  22.1%     -  428s
     0     0 210561.602    0 1119 270019.000 210561.602  22.0%     -  435s
     0     0 210781.055    0 1105 270019.000 210781.055  21.9%     -  442s
     0     0 210809.255    0 1114 270019.000 210809.255  21.9%     -  445s
     0     0 212027.189    0 1009 270019.000 212027.189  21.5%     -  457s
     0     0 212027.189    0  532 270019.000 212027.189  21.5%     -  463s
H    0     0                    270015.00000 212027.189  21.5%     -  463s
     0     0 212027.189    0  662 270015.000 212027.189  21.5%     -  471s
     0     0 212027.189    0  797 270015.000 212027.189  21.5%     -  484s
H    0     0                    270014.00000 212027.189  21.5%     -  492s
     0     0 212027.189    0  840 270014.000 212027.189  21.5%     -  492s
     0     0 212027.189    0  911 270014.000 212027.189  21.5%     -  501s
     0     0 212027.189    0  984 270014.000 212027.189  21.5%     -  515s
     0     0 212041.479    0  984 270014.000 212041.479  21.5%     -  523s
     0     0 212062.945    0  988 270014.000 212062.945  21.5%     -  524s
     0     0 212063.829    0  998 270014.000 212063.829  21.5%     -  525s
     0     0 213311.354    0 1059 270014.000 213311.354  21.0%     -  535s
     0     0 213550.899    0 1107 270014.000 213550.899  20.9%     -  543s
     0     0 213573.634    0 1112 270014.000 213573.634  20.9%     -  546s
     0     0 215075.100    0 1097 270014.000 215075.100  20.3%     -  557s
H    0     0                    270012.00000 215075.100  20.3%     -  559s
     0     0 215440.454    0 1075 270012.000 215440.454  20.2%     -  567s
     0     0 215536.543    0 1128 270012.000 215536.543  20.2%     -  572s
     0     0 215567.687    0 1113 270012.000 215567.687  20.2%     -  575s
     0     0          -    0      270012.000 215567.687  20.2%     -  578s

Cutting planes:
  Clique: 148
  MIR: 207
  StrongCG: 114
  GUB cover: 187
  Mod-K: 2

Explored 1 nodes (1565245 simplex iterations) in 578.01 seconds (1531.08 work units)
Thread count was 8 (of 8 available processors)

Solution count 10: 270012 270014 270015 ... 271544

Time limit reached
Best objective 2.700120000000e+05, best bound 2.155676870770e+05, gap 20.1637%
